p cnf 200 1110
-101 -35 0
-101 -82 0
-101 49 0
-101 68 0
-101 58 0
-101 45 0
-101 29 0
-101 -43 0
-101 44 0
-101 42 0
101 35 82 -49 -68 -58 -45 -29 43 -44 -42 0
-102 44 0
-102 -78 0
-102 -40 0
-102 -39 0
-102 29 0
-102 -66 0
-102 34 0
-102 -68 0
-102 -47 0
-102 32 0
102 -44 78 40 39 -29 66 -34 68 47 -32 0
-103 64 0
-103 58 0
-103 73 0
-103 -43 0
-103 80 0
-103 -69 0
-103 -13 0
-103 3 0
-103 54 0
-103 -86 0
103 -64 -58 -73 43 -80 69 13 -3 -54 86 0
-104 -16 0
-104 36 0
-104 88 0
-104 38 0
-104 100 0
-104 92 0
-104 49 0
-104 -33 0
-104 -72 0
-104 28 0
104 16 -36 -88 -38 -100 -92 -49 33 72 -28 0
-105 -5 0
-105 -18 0
-105 -64 0
-105 -99 0
-105 -39 0
-105 -29 0
-105 45 0
-105 -93 0
-105 97 0
-105 -36 0
105 5 18 64 99 39 29 -45 93 -97 36 0
-106 64 0
-106 93 0
-106 -30 0
-106 -72 0
-106 -12 0
-106 99 0
-106 86 0
-106 -34 0
-106 47 0
-106 38 0
106 -64 -93 30 72 12 -99 -86 34 -47 -38 0
-107 2 0
-107 95 0
-107 9 0
-107 -30 0
-107 -57 0
-107 -70 0
-107 72 0
-107 15 0
-107 83 0
-107 -61 0
107 -2 -95 -9 30 57 70 -72 -15 -83 61 0
-108 68 0
-108 -15 0
-108 73 0
-108 87 0
-108 -28 0
-108 -39 0
-108 -14 0
-108 47 0
-108 -3 0
-108 -46 0
108 -68 15 -73 -87 28 39 14 -47 3 46 0
-109 27 0
-109 88 0
-109 -19 0
-109 -13 0
-109 32 0
-109 -58 0
-109 37 0
-109 89 0
-109 -72 0
-109 35 0
109 -27 -88 19 13 -32 58 -37 -89 72 -35 0
-110 -6 0
-110 -7 0
-110 84 0
-110 -23 0
-110 -59 0
-110 51 0
-110 56 0
-110 82 0
-110 9 0
-110 -27 0
110 6 7 -84 23 59 -51 -56 -82 -9 27 0
101 102 103 104 105 106 107 108 109 110 0
-111 77 0
-111 84 0
-111 26 0
-111 58 0
-111 -14 0
-111 -5 0
-111 27 0
-111 -96 0
-111 -76 0
-111 50 0
111 -77 -84 -26 -58 14 5 -27 96 76 -50 0
-112 11 0
-112 -94 0
-112 -44 0
-112 95 0
-112 -96 0
-112 -59 0
-112 -32 0
-112 48 0
-112 58 0
-112 -6 0
112 -11 94 44 -95 96 59 32 -48 -58 6 0
-113 -2 0
-113 -42 0
-113 -3 0
-113 -85 0
-113 18 0
-113 -54 0
-113 36 0
-113 -89 0
-113 -27 0
-113 -23 0
113 2 42 3 85 -18 54 -36 89 27 23 0
-114 -58 0
-114 3 0
-114 -69 0
-114 47 0
-114 57 0
-114 77 0
-114 29 0
-114 -7 0
-114 -87 0
-114 -61 0
114 58 -3 69 -47 -57 -77 -29 7 87 61 0
-115 -51 0
-115 -30 0
-115 -89 0
-115 -57 0
-115 59 0
-115 -61 0
-115 40 0
-115 9 0
-115 -12 0
-115 78 0
115 51 30 89 57 -59 61 -40 -9 12 -78 0
-116 41 0
-116 88 0
-116 95 0
-116 51 0
-116 -26 0
-116 55 0
-116 -60 0
-116 -39 0
-116 -62 0
-116 -15 0
116 -41 -88 -95 -51 26 -55 60 39 62 15 0
-117 19 0
-117 -29 0
-117 -57 0
-117 -38 0
-117 32 0
-117 -71 0
-117 -13 0
-117 -54 0
-117 88 0
-117 -64 0
117 -19 29 57 38 -32 71 13 54 -88 64 0
-118 -56 0
-118 -8 0
-118 -93 0
-118 86 0
-118 84 0
-118 -3 0
-118 -45 0
-118 -60 0
-118 94 0
-118 70 0
118 56 8 93 -86 -84 3 45 60 -94 -70 0
-119 67 0
-119 -40 0
-119 -14 0
-119 96 0
-119 15 0
-119 73 0
-119 2 0
-119 47 0
-119 54 0
-119 9 0
119 -67 40 14 -96 -15 -73 -2 -47 -54 -9 0
-120 -66 0
-120 16 0
-120 47 0
-120 -88 0
-120 -37 0
-120 32 0
-120 -11 0
-120 99 0
-120 -38 0
-120 -26 0
120 66 -16 -47 88 37 -32 11 -99 38 26 0
111 112 113 114 115 116 117 118 119 120 0
-121 -86 0
-121 -27 0
-121 -9 0
-121 -36 0
-121 66 0
-121 -82 0
-121 -1 0
-121 -79 0
-121 -43 0
-121 46 0
121 86 27 9 36 -66 82 1 79 43 -46 0
-122 49 0
-122 -73 0
-122 -15 0
-122 90 0
-122 -34 0
-122 16 0
-122 -56 0
-122 -76 0
-122 41 0
-122 -58 0
122 -49 73 15 -90 34 -16 56 76 -41 58 0
-123 59 0
-123 -22 0
-123 -75 0
-123 -71 0
-123 -79 0
-123 -90 0
-123 5 0
-123 -6 0
-123 -10 0
-123 37 0
123 -59 22 75 71 79 90 -5 6 10 -37 0
-124 -97 0
-124 -68 0
-124 -39 0
-124 51 0
-124 -34 0
-124 59 0
-124 6 0
-124 73 0
-124 52 0
-124 -15 0
124 97 68 39 -51 34 -59 -6 -73 -52 15 0
-125 -43 0
-125 15 0
-125 -57 0
-125 -68 0
-125 -82 0
-125 42 0
-125 -29 0
-125 70 0
-125 -24 0
-125 -90 0
125 43 -15 57 68 82 -42 29 -70 24 90 0
-126 42 0
-126 7 0
-126 8 0
-126 84 0
-126 -4 0
-126 -88 0
-126 14 0
-126 49 0
-126 62 0
-126 16 0
126 -42 -7 -8 -84 4 88 -14 -49 -62 -16 0
-127 -23 0
-127 -45 0
-127 -34 0
-127 58 0
-127 42 0
-127 -8 0
-127 -76 0
-127 -47 0
-127 1 0
-127 24 0
127 23 45 34 -58 -42 8 76 47 -1 -24 0
-128 99 0
-128 25 0
-128 -53 0
-128 -100 0
-128 -82 0
-128 -21 0
-128 49 0
-128 94 0
-128 12 0
-128 -14 0
128 -99 -25 53 100 82 21 -49 -94 -12 14 0
-129 -39 0
-129 73 0
-129 41 0
-129 6 0
-129 -68 0
-129 -19 0
-129 -34 0
-129 99 0
-129 -72 0
-129 -32 0
129 39 -73 -41 -6 68 19 34 -99 72 32 0
-130 11 0
-130 27 0
-130 -99 0
-130 65 0
-130 -72 0
-130 -3 0
-130 -37 0
-130 -61 0
-130 59 0
-130 -5 0
130 -11 -27 99 -65 72 3 37 61 -59 5 0
121 122 123 124 125 126 127 128 129 130 0
-131 -34 0
-131 -66 0
-131 -53 0
-131 100 0
-131 -6 0
-131 85 0
-131 12 0
-131 45 0
-131 51 0
-131 -97 0
131 34 66 53 -100 6 -85 -12 -45 -51 97 0
-132 80 0
-132 22 0
-132 -35 0
-132 -73 0
-132 77 0
-132 -76 0
-132 39 0
-132 99 0
-132 -93 0
-132 69 0
132 -80 -22 35 73 -77 76 -39 -99 93 -69 0
-133 44 0
-133 -89 0
-133 7 0
-133 -94 0
-133 -1 0
-133 -75 0
-133 99 0
-133 77 0
-133 46 0
-133 23 0
133 -44 89 -7 94 1 75 -99 -77 -46 -23 0
-134 15 0
-134 7 0
-134 99 0
-134 74 0
-134 8 0
-134 47 0
-134 45 0
-134 1 0
-134 -82 0
-134 72 0
134 -15 -7 -99 -74 -8 -47 -45 -1 82 -72 0
-135 -67 0
-135 -69 0
-135 -71 0
-135 54 0
-135 86 0
-135 -14 0
-135 95 0
-135 13 0
-135 -56 0
-135 -97 0
135 67 69 71 -54 -86 14 -95 -13 56 97 0
-136 -9 0
-136 63 0
-136 72 0
-136 -5 0
-136 -36 0
-136 -62 0
-136 53 0
-136 41 0
-136 50 0
-136 64 0
136 9 -63 -72 5 36 62 -53 -41 -50 -64 0
-137 10 0
-137 36 0
-137 -21 0
-137 29 0
-137 4 0
-137 -83 0
-137 20 0
-137 -51 0
-137 -79 0
-137 70 0
137 -10 -36 21 -29 -4 83 -20 51 79 -70 0
-138 77 0
-138 -5 0
-138 86 0
-138 -18 0
-138 46 0
-138 79 0
-138 87 0
-138 59 0
-138 35 0
-138 -31 0
138 -77 5 -86 18 -46 -79 -87 -59 -35 31 0
-139 -65 0
-139 -47 0
-139 85 0
-139 3 0
-139 -12 0
-139 82 0
-139 -30 0
-139 28 0
-139 -40 0
-139 80 0
139 65 47 -85 -3 12 -82 30 -28 40 -80 0
-140 62 0
-140 8 0
-140 33 0
-140 41 0
-140 87 0
-140 -96 0
-140 -27 0
-140 31 0
-140 1 0
-140 -66 0
140 -62 -8 -33 -41 -87 96 27 -31 -1 66 0
131 132 133 134 135 136 137 138 139 140 0
-141 61 0
-141 -5 0
-141 68 0
-141 -48 0
-141 12 0
-141 27 0
-141 83 0
-141 -91 0
-141 -97 0
-141 -31 0
141 -61 5 -68 48 -12 -27 -83 91 97 31 0
-142 30 0
-142 9 0
-142 21 0
-142 33 0
-142 -13 0
-142 -50 0
-142 24 0
-142 -98 0
-142 71 0
-142 35 0
142 -30 -9 -21 -33 13 50 -24 98 -71 -35 0
-143 72 0
-143 7 0
-143 43 0
-143 24 0
-143 40 0
-143 88 0
-143 87 0
-143 53 0
-143 90 0
-143 74 0
143 -72 -7 -43 -24 -40 -88 -87 -53 -90 -74 0
-144 -84 0
-144 -45 0
-144 -83 0
-144 -37 0
-144 56 0
-144 24 0
-144 3 0
-144 26 0
-144 -25 0
-144 98 0
144 84 45 83 37 -56 -24 -3 -26 25 -98 0
-145 -90 0
-145 53 0
-145 -48 0
-145 36 0
-145 -27 0
-145 8 0
-145 67 0
-145 -94 0
-145 80 0
-145 78 0
145 90 -53 48 -36 27 -8 -67 94 -80 -78 0
-146 -57 0
-146 -51 0
-146 -59 0
-146 52 0
-146 -26 0
-146 -35 0
-146 2 0
-146 75 0
-146 -24 0
-146 9 0
146 57 51 59 -52 26 35 -2 -75 24 -9 0
-147 -67 0
-147 35 0
-147 31 0
-147 -84 0
-147 -45 0
-147 -37 0
-147 20 0
-147 -26 0
-147 -49 0
-147 -5 0
147 67 -35 -31 84 45 37 -20 26 49 5 0
-148 -69 0
-148 75 0
-148 -37 0
-148 -100 0
-148 47 0
-148 6 0
-148 -80 0
-148 51 0
-148 78 0
-148 44 0
148 69 -75 37 100 -47 -6 80 -51 -78 -44 0
-149 -71 0
-149 54 0
-149 37 0
-149 -94 0
-149 45 0
-149 -73 0
-149 82 0
-149 83 0
-149 7 0
-149 -22 0
149 71 -54 -37 94 -45 73 -82 -83 -7 22 0
-150 94 0
-150 -71 0
-150 -100 0
-150 88 0
-150 -90 0
-150 21 0
-150 74 0
-150 -9 0
-150 -18 0
-150 -54 0
150 -94 71 100 -88 90 -21 -74 9 18 54 0
141 142 143 144 145 146 147 148 149 150 0
-151 -42 0
-151 -22 0
-151 -100 0
-151 27 0
-151 -24 0
-151 -91 0
-151 65 0
-151 30 0
-151 -94 0
-151 -60 0
151 42 22 100 -27 24 91 -65 -30 94 60 0
-152 97 0
-152 -64 0
-152 -36 0
-152 38 0
-152 -28 0
-152 -66 0
-152 61 0
-152 41 0
-152 -40 0
-152 62 0
152 -97 64 36 -38 28 66 -61 -41 40 -62 0
-153 -38 0
-153 -42 0
-153 -58 0
-153 57 0
-153 -79 0
-153 37 0
-153 -4 0
-153 49 0
-153 23 0
-153 59 0
153 38 42 58 -57 79 -37 4 -49 -23 -59 0
-154 81 0
-154 79 0
-154 67 0
-154 -52 0
-154 -100 0
-154 -62 0
-154 99 0
-154 -42 0
-154 -20 0
-154 5 0
154 -81 -79 -67 52 100 62 -99 42 20 -5 0
-155 36 0
-155 59 0
-155 -72 0
-155 49 0
-155 -4 0
-155 31 0
-155 -80 0
-155 11 0
-155 -20 0
-155 91 0
155 -36 -59 72 -49 4 -31 80 -11 20 -91 0
-156 -50 0
-156 -78 0
-156 1 0
-156 86 0
-156 46 0
-156 67 0
-156 38 0
-156 16 0
-156 18 0
-156 70 0
156 50 78 -1 -86 -46 -67 -38 -16 -18 -70 0
-157 -26 0
-157 -85 0
-157 -62 0
-157 67 0
-157 -96 0
-157 -30 0
-157 -52 0
-157 10 0
-157 -58 0
-157 -48 0
157 26 85 62 -67 96 30 52 -10 58 48 0
-158 -100 0
-158 62 0
-158 36 0
-158 -94 0
-158 -69 0
-158 79 0
-158 -51 0
-158 -11 0
-158 90 0
-158 -31 0
158 100 -62 -36 94 69 -79 51 11 -90 31 0
-159 38 0
-159 69 0
-159 81 0
-159 80 0
-159 -90 0
-159 43 0
-159 71 0
-159 63 0
-159 -76 0
-159 87 0
159 -38 -69 -81 -80 90 -43 -71 -63 76 -87 0
-160 77 0
-160 14 0
-160 25 0
-160 -80 0
-160 60 0
-160 -66 0
-160 16 0
-160 52 0
-160 -81 0
-160 -97 0
160 -77 -14 -25 80 -60 66 -16 -52 81 97 0
151 152 153 154 155 156 157 158 159 160 0
-161 -36 0
-161 95 0
-161 77 0
-161 38 0
-161 -79 0
-161 29 0
-161 100 0
-161 83 0
-161 -67 0
-161 40 0
161 36 -95 -77 -38 79 -29 -100 -83 67 -40 0
-162 80 0
-162 97 0
-162 -91 0
-162 31 0
-162 30 0
-162 -4 0
-162 61 0
-162 33 0
-162 83 0
-162 58 0
162 -80 -97 91 -31 -30 4 -61 -33 -83 -58 0
-163 3 0
-163 33 0
-163 12 0
-163 78 0
-163 39 0
-163 5 0
-163 62 0
-163 -76 0
-163 11 0
-163 -43 0
163 -3 -33 -12 -78 -39 -5 -62 76 -11 43 0
-164 -27 0
-164 -58 0
-164 -57 0
-164 35 0
-164 54 0
-164 -78 0
-164 62 0
-164 74 0
-164 -51 0
-164 49 0
164 27 58 57 -35 -54 78 -62 -74 51 -49 0
-165 -55 0
-165 7 0
-165 -28 0
-165 -29 0
-165 71 0
-165 17 0
-165 -13 0
-165 3 0
-165 -2 0
-165 -11 0
165 55 -7 28 29 -71 -17 13 -3 2 11 0
-166 28 0
-166 42 0
-166 52 0
-166 -86 0
-166 -61 0
-166 -5 0
-166 -26 0
-166 78 0
-166 -47 0
-166 4 0
166 -28 -42 -52 86 61 5 26 -78 47 -4 0
-167 80 0
-167 -25 0
-167 -28 0
-167 -99 0
-167 -64 0
-167 2 0
-167 -45 0
-167 77 0
-167 69 0
-167 -3 0
167 -80 25 28 99 64 -2 45 -77 -69 3 0
-168 7 0
-168 38 0
-168 25 0
-168 34 0
-168 10 0
-168 48 0
-168 -70 0
-168 -67 0
-168 65 0
-168 -21 0
168 -7 -38 -25 -34 -10 -48 70 67 -65 21 0
-169 -97 0
-169 -8 0
-169 -83 0
-169 -47 0
-169 93 0
-169 99 0
-169 -87 0
-169 -23 0
-169 -60 0
-169 -55 0
169 97 8 83 47 -93 -99 87 23 60 55 0
-170 5 0
-170 82 0
-170 8 0
-170 39 0
-170 75 0
-170 -78 0
-170 -55 0
-170 -61 0
-170 -20 0
-170 77 0
170 -5 -82 -8 -39 -75 78 55 61 20 -77 0
161 162 163 164 165 166 167 168 169 170 0
-171 91 0
-171 64 0
-171 93 0
-171 -63 0
-171 -95 0
-171 -81 0
-171 -18 0
-171 -41 0
-171 -62 0
-171 -16 0
171 -91 -64 -93 63 95 81 18 41 62 16 0
-172 -50 0
-172 -71 0
-172 -79 0
-172 -21 0
-172 -67 0
-172 95 0
-172 -94 0
-172 74 0
-172 58 0
-172 -15 0
172 50 71 79 21 67 -95 94 -74 -58 15 0
-173 -48 0
-173 94 0
-173 83 0
-173 56 0
-173 65 0
-173 78 0
-173 -76 0
-173 47 0
-173 -29 0
-173 -43 0
173 48 -94 -83 -56 -65 -78 76 -47 29 43 0
-174 -82 0
-174 -79 0
-174 -27 0
-174 -49 0
-174 19 0
-174 45 0
-174 52 0
-174 -18 0
-174 34 0
-174 46 0
174 82 79 27 49 -19 -45 -52 18 -34 -46 0
-175 -60 0
-175 36 0
-175 -50 0
-175 80 0
-175 -2 0
-175 70 0
-175 63 0
-175 -33 0
-175 -100 0
-175 91 0
175 60 -36 50 -80 2 -70 -63 33 100 -91 0
-176 94 0
-176 77 0
-176 97 0
-176 53 0
-176 -60 0
-176 -80 0
-176 -57 0
-176 43 0
-176 63 0
-176 -37 0
176 -94 -77 -97 -53 60 80 57 -43 -63 37 0
-177 64 0
-177 18 0
-177 79 0
-177 52 0
-177 31 0
-177 91 0
-177 -66 0
-177 -57 0
-177 -60 0
-177 -27 0
177 -64 -18 -79 -52 -31 -91 66 57 60 27 0
-178 -76 0
-178 6 0
-178 -17 0
-178 9 0
-178 -23 0
-178 -35 0
-178 81 0
-178 87 0
-178 -44 0
-178 -49 0
178 76 -6 17 -9 23 35 -81 -87 44 49 0
-179 74 0
-179 -41 0
-179 -15 0
-179 -38 0
-179 33 0
-179 -36 0
-179 42 0
-179 27 0
-179 -80 0
-179 76 0
179 -74 41 15 38 -33 36 -42 -27 80 -76 0
-180 19 0
-180 -98 0
-180 -83 0
-180 82 0
-180 -16 0
-180 -55 0
-180 81 0
-180 69 0
-180 6 0
-180 51 0
180 -19 98 83 -82 16 55 -81 -69 -6 -51 0
171 172 173 174 175 176 177 178 179 180 0
-181 -48 0
-181 50 0
-181 -63 0
-181 71 0
-181 -52 0
-181 -49 0
-181 -65 0
-181 -61 0
-181 -4 0
-181 -90 0
181 48 -50 63 -71 52 49 65 61 4 90 0
-182 30 0
-182 60 0
-182 -93 0
-182 -40 0
-182 -56 0
-182 -52 0
-182 71 0
-182 -25 0
-182 38 0
-182 81 0
182 -30 -60 93 40 56 52 -71 25 -38 -81 0
-183 87 0
-183 -28 0
-183 -52 0
-183 -82 0
-183 23 0
-183 -26 0
-183 -56 0
-183 -66 0
-183 61 0
-183 -96 0
183 -87 28 52 82 -23 26 56 66 -61 96 0
-184 61 0
-184 87 0
-184 -28 0
-184 -95 0
-184 -84 0
-184 -90 0
-184 -29 0
-184 94 0
-184 65 0
-184 -40 0
184 -61 -87 28 95 84 90 29 -94 -65 40 0
-185 -54 0
-185 27 0
-185 82 0
-185 -59 0
-185 98 0
-185 38 0
-185 68 0
-185 96 0
-185 -43 0
-185 -39 0
185 54 -27 -82 59 -98 -38 -68 -96 43 39 0
-186 -20 0
-186 51 0
-186 61 0
-186 28 0
-186 -23 0
-186 58 0
-186 -81 0
-186 9 0
-186 -25 0
-186 -45 0
186 20 -51 -61 -28 23 -58 81 -9 25 45 0
-187 -71 0
-187 89 0
-187 17 0
-187 80 0
-187 -43 0
-187 -31 0
-187 -42 0
-187 -67 0
-187 -57 0
-187 -90 0
187 71 -89 -17 -80 43 31 42 67 57 90 0
-188 -59 0
-188 9 0
-188 -52 0
-188 -76 0
-188 -68 0
-188 41 0
-188 58 0
-188 -55 0
-188 6 0
-188 -75 0
188 59 -9 52 76 68 -41 -58 55 -6 75 0
-189 9 0
-189 18 0
-189 71 0
-189 -7 0
-189 -15 0
-189 -28 0
-189 -91 0
-189 76 0
-189 -22 0
-189 92 0
189 -9 -18 -71 7 15 28 91 -76 22 -92 0
-190 35 0
-190 -98 0
-190 -77 0
-190 -27 0
-190 73 0
-190 -92 0
-190 -49 0
-190 88 0
-190 -82 0
-190 -14 0
190 -35 98 77 27 -73 92 49 -88 82 14 0
181 182 183 184 185 186 187 188 189 190 0
-191 -38 0
-191 -99 0
-191 4 0
-191 -50 0
-191 -60 0
-191 -70 0
-191 -56 0
-191 55 0
-191 -78 0
-191 45 0
191 38 99 -4 50 60 70 56 -55 78 -45 0
-192 -45 0
-192 -88 0
-192 -39 0
-192 -14 0
-192 -3 0
-192 -55 0
-192 16 0
-192 78 0
-192 -93 0
-192 80 0
192 45 88 39 14 3 55 -16 -78 93 -80 0
-193 21 0
-193 -68 0
-193 31 0
-193 -86 0
-193 10 0
-193 6 0
-193 78 0
-193 2 0
-193 22 0
-193 -16 0
193 -21 68 -31 86 -10 -6 -78 -2 -22 16 0
-194 23 0
-194 1 0
-194 91 0
-194 -10 0
-194 24 0
-194 -62 0
-194 -87 0
-194 -38 0
-194 88 0
-194 77 0
194 -23 -1 -91 10 -24 62 87 38 -88 -77 0
-195 -33 0
-195 -15 0
-195 -59 0
-195 12 0
-195 37 0
-195 -95 0
-195 63 0
-195 97 0
-195 35 0
-195 -9 0
195 33 15 59 -12 -37 95 -63 -97 -35 9 0
-196 3 0
-196 77 0
-196 36 0
-196 31 0
-196 -20 0
-196 -63 0
-196 98 0
-196 -76 0
-196 42 0
-196 -15 0
196 -3 -77 -36 -31 20 63 -98 76 -42 15 0
-197 -16 0
-197 94 0
-197 -91 0
-197 71 0
-197 47 0
-197 -25 0
-197 -8 0
-197 40 0
-197 -43 0
-197 -78 0
197 16 -94 91 -71 -47 25 8 -40 43 78 0
-198 -94 0
-198 57 0
-198 -15 0
-198 65 0
-198 62 0
-198 54 0
-198 -51 0
-198 -75 0
-198 -64 0
-198 70 0
198 94 -57 15 -65 -62 -54 51 75 64 -70 0
-199 -17 0
-199 72 0
-199 -7 0
-199 21 0
-199 -79 0
-199 -81 0
-199 -82 0
-199 58 0
-199 30 0
-199 -18 0
199 17 -72 7 -21 79 81 82 -58 -30 18 0
-200 -36 0
-200 -61 0
-200 74 0
-200 -77 0
-200 -1 0
-200 86 0
-200 63 0
-200 -37 0
-200 -14 0
-200 -64 0
200 36 61 -74 77 1 -86 -63 37 14 64 0
191 192 193 194 195 196 197 198 199 200 0
